(set-logic QF_NRA)
(declare-fun skoY () Real)
(declare-fun skoX () Real)
(declare-fun skoW () Real)
(declare-fun skoZ () Real)
(assert (and (not (<= (+ (* (- 120) skoY) (* (- 120) skoX) (* (- 120) skoW) (* (- 120) skoZ) (* 20 (* skoW skoW skoW)) (* 60 (* skoX skoW skoW)) (* 20 (* skoX skoX skoX)) (* 60 (* skoX skoX skoW)) (* 60 (* skoY skoW skoW)) (* 60 (* skoY skoX skoX)) (* 120 (* skoY skoX skoW)) (* 20 (* skoY skoY skoY)) (* 60 (* skoY skoY skoX)) (* 60 (* skoY skoY skoW)) (* 60 (* skoW skoW skoZ)) (* 60 (* skoX skoX skoZ)) (* 120 (* skoX skoW skoZ)) (* 60 (* skoY skoY skoZ)) (* 120 (* skoY skoX skoZ)) (* 120 (* skoY skoW skoZ)) (* 60 (* skoY skoZ skoZ)) (* 60 (* skoX skoZ skoZ)) (* 60 (* skoW skoZ skoZ)) (* 20 (* skoZ skoZ skoZ)) (* (- 5) (* skoW skoW skoW skoW skoZ)) (* (- 20) (* skoX skoW skoW skoW skoZ)) (* (- 30) (* skoX skoX skoW skoW skoZ)) (* (- 5) (* skoX skoX skoX skoX skoZ)) (* (- 20) (* skoX skoX skoX skoW skoZ)) (* (- 20) (* skoY skoW skoW skoW skoZ)) (* (- 60) (* skoY skoX skoW skoW skoZ)) (* (- 20) (* skoY skoX skoX skoX skoZ)) (* (- 60) (* skoY skoX skoX skoW skoZ)) (* (- 30) (* skoY skoY skoW skoW skoZ)) (* (- 30) (* skoY skoY skoX skoX skoZ)) (* (- 60) (* skoY skoY skoX skoW skoZ)) (* (- 5) (* skoY skoY skoY skoY skoZ)) (* (- 20) (* skoY skoY skoY skoX skoZ)) (* (- 20) (* skoY skoY skoY skoW skoZ)) (* (- 10) (* skoW skoW skoW skoZ skoZ)) (* (- 30) (* skoX skoW skoW skoZ skoZ)) (* (- 10) (* skoX skoX skoX skoZ skoZ)) (* (- 30) (* skoX skoX skoW skoZ skoZ)) (* (- 30) (* skoY skoW skoW skoZ skoZ)) (* (- 30) (* skoY skoX skoX skoZ skoZ)) (* (- 60) (* skoY skoX skoW skoZ skoZ)) (* (- 10) (* skoY skoY skoY skoZ skoZ)) (* (- 30) (* skoY skoY skoX skoZ skoZ)) (* (- 30) (* skoY skoY skoW skoZ skoZ)) (* (- 10) (* skoW skoW skoZ skoZ skoZ)) (* (- 10) (* skoX skoX skoZ skoZ skoZ)) (* (- 20) (* skoX skoW skoZ skoZ skoZ)) (* (- 10) (* skoY skoY skoZ skoZ skoZ)) (* (- 20) (* skoY skoX skoZ skoZ skoZ)) (* (- 20) (* skoY skoW skoZ skoZ skoZ)) (* (- 5) (* skoY skoZ skoZ skoZ skoZ)) (* (- 5) (* skoX skoZ skoZ skoZ skoZ)) (* (- 5) (* skoW skoZ skoZ skoZ skoZ)) (* (- 1) (* skoZ skoZ skoZ skoZ skoZ)) (* (- 1) (* skoW skoW skoW skoW skoW)) (* (- 5) (* skoX skoW skoW skoW skoW)) (* (- 10) (* skoX skoX skoW skoW skoW)) (* (- 10) (* skoX skoX skoX skoW skoW)) (* (- 1) (* skoX skoX skoX skoX skoX)) (* (- 5) (* skoX skoX skoX skoX skoW)) (* (- 5) (* skoY skoW skoW skoW skoW)) (* (- 20) (* skoY skoX skoW skoW skoW)) (* (- 30) (* skoY skoX skoX skoW skoW)) (* (- 5) (* skoY skoX skoX skoX skoX)) (* (- 20) (* skoY skoX skoX skoX skoW)) (* (- 10) (* skoY skoY skoW skoW skoW)) (* (- 30) (* skoY skoY skoX skoW skoW)) (* (- 10) (* skoY skoY skoX skoX skoX)) (* (- 30) (* skoY skoY skoX skoX skoW)) (* (- 10) (* skoY skoY skoY skoW skoW)) (* (- 10) (* skoY skoY skoY skoX skoX)) (* (- 20) (* skoY skoY skoY skoX skoW)) (* (- 1) (* skoY skoY skoY skoY skoY)) (* (- 5) (* skoY skoY skoY skoY skoX)) (* (- 5) (* skoY skoY skoY skoY skoW))) 0)) (and (not (<= (* (- 1) skoW) (- 3))) (and (not (<= (* (- 1) skoX) (- 3))) (and (not (<= (* (- 1) skoY) (- 3))) (and (not (<= (* (- 1) skoZ) (- 3))) (and (not (<= (* 10 skoW) 1)) (and (not (<= (* 10 skoX) 1)) (and (not (<= (* 10 skoY) 1)) (not (<= (* 10 skoZ) 1)))))))))))
(set-info :status unsat)
(check-sat)
